c description: Random 5-CNF over 15 variables and 30 clauses
c generator: CNFgen (0.9.0)
c copyright: (C) 2012-2020 Massimo Lauria <massimo.lauria@uniroma1.it>
c url: https://massimolauria.net/cnfgen
c
p cnf 15 30
4 8 11 -13 -15 0
3 -7 8 12 -15 0
1 -10 12 13 15 0
1 3 12 -14 -15 0
-2 5 -9 -10 14 0
1 -5 -7 11 13 0
-1 11 -13 -14 15 0
-3 -9 11 -12 14 0
-7 -8 9 12 14 0
-3 5 -6 11 14 0
1 3 -4 -5 -13 0
1 -2 -6 13 14 0
-6 -9 10 -11 -13 0
3 6 -8 -10 -15 0
3 -4 6 -12 15 0
1 5 9 12 14 0
-3 -4 6 -10 13 0
-3 -6 10 12 15 0
6 9 -12 13 14 0
4 7 -12 -14 -15 0
-1 2 6 13 14 0
-3 -6 -8 11 -15 0
3 -9 11 13 14 0
-5 11 13 14 15 0
-1 -5 -10 -11 -15 0
1 -3 4 -6 -11 0
-1 4 -9 -12 -14 0
-3 -6 10 11 12 0
3 4 -5 7 13 0
1 2 -8 10 12 0